c description: Tseitin formula on , with even charge
c generator: CNFgen (0.9.0)
c copyright: (C) 2012-2020 Massimo Lauria <massimo.lauria@uniroma1.it>
c url: https://massimolauria.net/cnfgen
c
p cnf 40 299
1 2 3 -4 0
1 2 -3 4 0
1 -2 3 4 0
1 -2 -3 -4 0
-1 2 3 4 0
-1 2 -3 -4 0
-1 -2 3 -4 0
-1 -2 -3 4 0
1 5 -6 0
1 -5 6 0
-1 5 6 0
-1 -5 -6 0
2 7 8 9 10 11 -12 0
2 7 8 9 10 -11 12 0
2 7 8 9 -10 11 12 0
2 7 8 9 -10 -11 -12 0
2 7 8 -9 10 11 12 0
2 7 8 -9 10 -11 -12 0
2 7 8 -9 -10 11 -12 0
2 7 8 -9 -10 -11 12 0
2 7 -8 9 10 11 12 0
2 7 -8 9 10 -11 -12 0
2 7 -8 9 -10 11 -12 0
2 7 -8 9 -10 -11 12 0
2 7 -8 -9 10 11 -12 0
2 7 -8 -9 10 -11 12 0
2 7 -8 -9 -10 11 12 0
2 7 -8 -9 -10 -11 -12 0
2 -7 8 9 10 11 12 0
2 -7 8 9 10 -11 -12 0
2 -7 8 9 -10 11 -12 0
2 -7 8 9 -10 -11 12 0
2 -7 8 -9 10 11 -12 0
2 -7 8 -9 10 -11 12 0
2 -7 8 -9 -10 11 12 0
2 -7 8 -9 -10 -11 -12 0
2 -7 -8 9 10 11 -12 0
2 -7 -8 9 10 -11 12 0
2 -7 -8 9 -10 11 12 0
2 -7 -8 9 -10 -11 -12 0
2 -7 -8 -9 10 11 12 0
2 -7 -8 -9 10 -11 -12 0
2 -7 -8 -9 -10 11 -12 0
2 -7 -8 -9 -10 -11 12 0
-2 7 8 9 10 11 12 0
-2 7 8 9 10 -11 -12 0
-2 7 8 9 -10 11 -12 0
-2 7 8 9 -10 -11 12 0
-2 7 8 -9 10 11 -12 0
-2 7 8 -9 10 -11 12 0
-2 7 8 -9 -10 11 12 0
-2 7 8 -9 -10 -11 -12 0
-2 7 -8 9 10 11 -12 0
-2 7 -8 9 10 -11 12 0
-2 7 -8 9 -10 11 12 0
-2 7 -8 9 -10 -11 -12 0
-2 7 -8 -9 10 11 12 0
-2 7 -8 -9 10 -11 -12 0
-2 7 -8 -9 -10 11 -12 0
-2 7 -8 -9 -10 -11 12 0
-2 -7 8 9 10 11 -12 0
-2 -7 8 9 10 -11 12 0
-2 -7 8 9 -10 11 12 0
-2 -7 8 9 -10 -11 -12 0
-2 -7 8 -9 10 11 12 0
-2 -7 8 -9 10 -11 -12 0
-2 -7 8 -9 -10 11 -12 0
-2 -7 8 -9 -10 -11 12 0
-2 -7 -8 9 10 11 12 0
-2 -7 -8 9 10 -11 -12 0
-2 -7 -8 9 -10 11 -12 0
-2 -7 -8 9 -10 -11 12 0
-2 -7 -8 -9 10 11 -12 0
-2 -7 -8 -9 10 -11 12 0
-2 -7 -8 -9 -10 11 12 0
-2 -7 -8 -9 -10 -11 -12 0
3 13 14 -15 0
3 13 -14 15 0
3 -13 14 15 0
3 -13 -14 -15 0
-3 13 14 15 0
-3 13 -14 -15 0
-3 -13 14 -15 0
-3 -13 -14 15 0
16 17 -18 0
16 -17 18 0
-16 17 18 0
-16 -17 -18 0
19 20 21 -22 0
19 20 -21 22 0
19 -20 21 22 0
19 -20 -21 -22 0
-19 20 21 22 0
-19 20 -21 -22 0
-19 -20 21 -22 0
-19 -20 -21 22 0
16 19 23 -24 0
16 19 -23 24 0
16 -19 23 24 0
16 -19 -23 -24 0
-16 19 23 24 0
-16 19 -23 -24 0
-16 -19 23 -24 0
-16 -19 -23 24 0
7 13 25 -26 0
7 13 -25 26 0
7 -13 25 26 0
7 -13 -25 -26 0
-7 13 25 26 0
-7 13 -25 -26 0
-7 -13 25 -26 0
-7 -13 -25 26 0
27 28 29 -30 0
27 28 -29 30 0
27 -28 29 30 0
27 -28 -29 -30 0
-27 28 29 30 0
-27 28 -29 -30 0
-27 -28 29 -30 0
-27 -28 -29 30 0
14 20 27 31 -32 0
14 20 27 -31 32 0
14 20 -27 31 32 0
14 20 -27 -31 -32 0
14 -20 27 31 32 0
14 -20 27 -31 -32 0
14 -20 -27 31 -32 0
14 -20 -27 -31 32 0
-14 20 27 31 32 0
-14 20 27 -31 -32 0
-14 20 -27 31 -32 0
-14 20 -27 -31 32 0
-14 -20 27 31 -32 0
-14 -20 27 -31 32 0
-14 -20 -27 31 32 0
-14 -20 -27 -31 -32 0
15 21 25 -33 0
15 21 -25 33 0
15 -21 25 33 0
15 -21 -25 -33 0
-15 21 25 33 0
-15 21 -25 -33 0
-15 -21 25 -33 0
-15 -21 -25 33 0
-17 0
8 18 33 -34 0
8 18 -33 34 0
8 -18 33 34 0
8 -18 -33 -34 0
-8 18 33 34 0
-8 18 -33 -34 0
-8 -18 33 -34 0
-8 -18 -33 34 0
9 23 28 31 35 -36 0
9 23 28 31 -35 36 0
9 23 28 -31 35 36 0
9 23 28 -31 -35 -36 0
9 23 -28 31 35 36 0
9 23 -28 31 -35 -36 0
9 23 -28 -31 35 -36 0
9 23 -28 -31 -35 36 0
9 -23 28 31 35 36 0
9 -23 28 31 -35 -36 0
9 -23 28 -31 35 -36 0
9 -23 28 -31 -35 36 0
9 -23 -28 31 35 -36 0
9 -23 -28 31 -35 36 0
9 -23 -28 -31 35 36 0
9 -23 -28 -31 -35 -36 0
-9 23 28 31 35 36 0
-9 23 28 31 -35 -36 0
-9 23 28 -31 35 -36 0
-9 23 28 -31 -35 36 0
-9 23 -28 31 35 -36 0
-9 23 -28 31 -35 36 0
-9 23 -28 -31 35 36 0
-9 23 -28 -31 -35 -36 0
-9 -23 28 31 35 -36 0
-9 -23 28 31 -35 36 0
-9 -23 28 -31 35 36 0
-9 -23 28 -31 -35 -36 0
-9 -23 -28 31 35 36 0
-9 -23 -28 31 -35 -36 0
-9 -23 -28 -31 35 -36 0
-9 -23 -28 -31 -35 36 0
10 29 37 -38 0
10 29 -37 38 0
10 -29 37 38 0
10 -29 -37 -38 0
-10 29 37 38 0
-10 29 -37 -38 0
-10 -29 37 -38 0
-10 -29 -37 38 0
5 11 37 -39 0
5 11 -37 39 0
5 -11 37 39 0
5 -11 -37 -39 0
-5 11 37 39 0
-5 11 -37 -39 0
-5 -11 37 -39 0
-5 -11 -37 39 0
6 -26 0
-6 26 0
4 22 24 32 35 -40 0
4 22 24 32 -35 40 0
4 22 24 -32 35 40 0
4 22 24 -32 -35 -40 0
4 22 -24 32 35 40 0
4 22 -24 32 -35 -40 0
4 22 -24 -32 35 -40 0
4 22 -24 -32 -35 40 0
4 -22 24 32 35 40 0
4 -22 24 32 -35 -40 0
4 -22 24 -32 35 -40 0
4 -22 24 -32 -35 40 0
4 -22 -24 32 35 -40 0
4 -22 -24 32 -35 40 0
4 -22 -24 -32 35 40 0
4 -22 -24 -32 -35 -40 0
-4 22 24 32 35 40 0
-4 22 24 32 -35 -40 0
-4 22 24 -32 35 -40 0
-4 22 24 -32 -35 40 0
-4 22 -24 32 35 -40 0
-4 22 -24 32 -35 40 0
-4 22 -24 -32 35 40 0
-4 22 -24 -32 -35 -40 0
-4 -22 24 32 35 -40 0
-4 -22 24 32 -35 40 0
-4 -22 24 -32 35 40 0
-4 -22 24 -32 -35 -40 0
-4 -22 -24 32 35 40 0
-4 -22 -24 32 -35 -40 0
-4 -22 -24 -32 35 -40 0
-4 -22 -24 -32 -35 40 0
12 30 34 36 38 39 -40 0
12 30 34 36 38 -39 40 0
12 30 34 36 -38 39 40 0
12 30 34 36 -38 -39 -40 0
12 30 34 -36 38 39 40 0
12 30 34 -36 38 -39 -40 0
12 30 34 -36 -38 39 -40 0
12 30 34 -36 -38 -39 40 0
12 30 -34 36 38 39 40 0
12 30 -34 36 38 -39 -40 0
12 30 -34 36 -38 39 -40 0
12 30 -34 36 -38 -39 40 0
12 30 -34 -36 38 39 -40 0
12 30 -34 -36 38 -39 40 0
12 30 -34 -36 -38 39 40 0
12 30 -34 -36 -38 -39 -40 0
12 -30 34 36 38 39 40 0
12 -30 34 36 38 -39 -40 0
12 -30 34 36 -38 39 -40 0
12 -30 34 36 -38 -39 40 0
12 -30 34 -36 38 39 -40 0
12 -30 34 -36 38 -39 40 0
12 -30 34 -36 -38 39 40 0
12 -30 34 -36 -38 -39 -40 0
12 -30 -34 36 38 39 -40 0
12 -30 -34 36 38 -39 40 0
12 -30 -34 36 -38 39 40 0
12 -30 -34 36 -38 -39 -40 0
12 -30 -34 -36 38 39 40 0
12 -30 -34 -36 38 -39 -40 0
12 -30 -34 -36 -38 39 -40 0
12 -30 -34 -36 -38 -39 40 0
-12 30 34 36 38 39 40 0
-12 30 34 36 38 -39 -40 0
-12 30 34 36 -38 39 -40 0
-12 30 34 36 -38 -39 40 0
-12 30 34 -36 38 39 -40 0
-12 30 34 -36 38 -39 40 0
-12 30 34 -36 -38 39 40 0
-12 30 34 -36 -38 -39 -40 0
-12 30 -34 36 38 39 -40 0
-12 30 -34 36 38 -39 40 0
-12 30 -34 36 -38 39 40 0
-12 30 -34 36 -38 -39 -40 0
-12 30 -34 -36 38 39 40 0
-12 30 -34 -36 38 -39 -40 0
-12 30 -34 -36 -38 39 -40 0
-12 30 -34 -36 -38 -39 40 0
-12 -30 34 36 38 39 -40 0
-12 -30 34 36 38 -39 40 0
-12 -30 34 36 -38 39 40 0
-12 -30 34 36 -38 -39 -40 0
-12 -30 34 -36 38 39 40 0
-12 -30 34 -36 38 -39 -40 0
-12 -30 34 -36 -38 39 -40 0
-12 -30 34 -36 -38 -39 40 0
-12 -30 -34 36 38 39 40 0
-12 -30 -34 36 38 -39 -40 0
-12 -30 -34 36 -38 39 -40 0
-12 -30 -34 36 -38 -39 40 0
-12 -30 -34 -36 38 39 -40 0
-12 -30 -34 -36 38 -39 40 0
-12 -30 -34 -36 -38 39 40 0
-12 -30 -34 -36 -38 -39 -40 0